experiments/sat_smt/run/sat-r+/results/zoe_richard.res
solved=true
solvingTime=414.353546142578125
nActions=17