experiments/sat_smt/run/sat-r+/results/zoe_richard.out
Timesteps: 1
s UNSATISFIABLE
real 0.20
user 0.02
sys 0.00
Timesteps: 2
s UNSATISFIABLE
real 0.21
user 0.05
sys 0.00
Timesteps: 3
s UNSATISFIABLE
real 0.28
user 0.10
sys 0.01
Timesteps: 4
s UNSATISFIABLE
real 0.34
user 0.16
sys 0.01
Timesteps: 5
s UNSATISFIABLE
real 0.39
user 0.23
sys 0.01
Timesteps: 6
s UNSATISFIABLE
real 0.52
user 0.31
sys 0.01
Timesteps: 7
s UNSATISFIABLE
real 0.67
user 0.38
sys 0.01
Timesteps: 8
s UNSATISFIABLE
real 0.90
user 0.64
sys 0.02
Timesteps: 9
s UNSATISFIABLE
real 1.17
user 0.83
sys 0.02
Timesteps: 10
s UNSATISFIABLE
real 5.84
user 5.03
sys 0.04
Timesteps: 11
s UNSATISFIABLE
real 13.19
user 12.26
sys 0.05
Timesteps: 12
s UNSATISFIABLE
real 27.53
user 26.42
sys 0.07
Timesteps: 13
s UNSATISFIABLE
real 40.24
user 38.96
sys 0.09
Timesteps: 14
s UNSATISFIABLE
real 35.75
user 34.39
sys 0.10
Timesteps: 15
s UNSATISFIABLE
real 57.21
user 55.79
sys 0.12
Timesteps: 16
s UNSATISFIABLE
real 147.31
user 146.13
sys 0.16
Timesteps: 17
s SATISFIABLE
real 87.16
user 85.85
sys 0.15
